p cnf 7230 16
6291 -6422 0
-4944 -6289 -6425 0
-4942 -6287 -6423 0
4944 -6426 0
4942 -6424 0
-5795 -6291 6421 0
6291 -6428 0
-4314 -6291 6427 0
6425 6426 0
6423 6424 0
-6421 6422 0
-6427 6428 0
4314 -6428 0
6289 -6426 0
6287 -6424 0
5795 -6422 0
